0 7715315
1 7712065
2 7711439
5 7656321
14 7629758
21 7615700
23 7615088
24 7612739
30 7590948
33 7584893
34 7559673
45 7559050
54 7524828
57 7515104
59 7461779
69 7446360
79 7444109
83 7431287
89 7430425
90 7380536
92 7372625
94 7359495
100 7357498
102 7348126
106 7326838
117 7314098
119 7275813
126 7268926
131 7253410
151 7252964
154 7239419
161 7237433
166 7234051
170 7229395
173 7229254
180 7228501
194 7221935
200 7221053
213 7220916
218 7188863
224 7162153
235 7160073
241 7153924
250 7153027
266 7152264
272 7149274
286 7121363
302 7121236
308 7120300
320 7119734
340 7119244
345 7114254
346 7114012
396 7112274
479 7112158
496 7108084
512 7105372
523 7102126
524 7101138
526 7101014
561 7100461
699 7100454
